p cnf 0 0
c K couleurs
17 21 25 29 33 37 41 45 49 53 57 61 65 69 73 77 81 0
18 22 26 30 34 38 42 46 50 54 58 62 66 70 74 78 82 0
19 23 27 31 35 39 43 47 51 55 59 63 67 71 75 79 83 0
20 24 28 32 36 40 44 48 52 56 60 64 68 72 76 80 84 0
1 0
-18 0
-19 0
-20 0
-23 0
-24 0
-28 0
c 1 color par vertex et au plus 1
17 18 19 20 0
-18 -17 0
-19 -17 0
-20 -17 0
-19 -18 0
-20 -18 0
-20 -19 0
21 22 23 24 0
-22 -21 0
-23 -21 0
-24 -21 0
-23 -22 0
-24 -22 0
-24 -23 0
25 26 27 28 0
-26 -25 0
-27 -25 0
-28 -25 0
-27 -26 0
-28 -26 0
-28 -27 0
29 30 31 32 0
-30 -29 0
-31 -29 0
-32 -29 0
-31 -30 0
-32 -30 0
-32 -31 0
33 34 35 36 0
-34 -33 0
-35 -33 0
-36 -33 0
-35 -34 0
-36 -34 0
-36 -35 0
37 38 39 40 0
-38 -37 0
-39 -37 0
-40 -37 0
-39 -38 0
-40 -38 0
-40 -39 0
41 42 43 44 0
-42 -41 0
-43 -41 0
-44 -41 0
-43 -42 0
-44 -42 0
-44 -43 0
45 46 47 48 0
-46 -45 0
-47 -45 0
-48 -45 0
-47 -46 0
-48 -46 0
-48 -47 0
49 50 51 52 0
-50 -49 0
-51 -49 0
-52 -49 0
-51 -50 0
-52 -50 0
-52 -51 0
53 54 55 56 0
-54 -53 0
-55 -53 0
-56 -53 0
-55 -54 0
-56 -54 0
-56 -55 0
57 58 59 60 0
-58 -57 0
-59 -57 0
-60 -57 0
-59 -58 0
-60 -58 0
-60 -59 0
61 62 63 64 0
-62 -61 0
-63 -61 0
-64 -61 0
-63 -62 0
-64 -62 0
-64 -63 0
65 66 67 68 0
-66 -65 0
-67 -65 0
-68 -65 0
-67 -66 0
-68 -66 0
-68 -67 0
69 70 71 72 0
-70 -69 0
-71 -69 0
-72 -69 0
-71 -70 0
-72 -70 0
-72 -71 0
73 74 75 76 0
-74 -73 0
-75 -73 0
-76 -73 0
-75 -74 0
-76 -74 0
-76 -75 0
77 78 79 80 0
-78 -77 0
-79 -77 0
-80 -77 0
-79 -78 0
-80 -78 0
-80 -79 0
81 82 83 84 0
-82 -81 0
-83 -81 0
-84 -81 0
-83 -82 0
-84 -82 0
-84 -83 0
c gc coresp to G
-17 -22 85 0
-17 -22 -86 1 0
-17 -22 86 -1 0
-17 -23 87 0
-17 -23 -88 1 0
-17 -23 88 -1 0
-17 -24 89 0
-17 -24 -90 1 0
-17 -24 90 -1 0
-18 -21 85 0
-18 -21 -86 1 0
-18 -21 86 -1 0
-18 -23 91 0
-18 -23 -92 1 0
-18 -23 92 -1 0
-18 -24 93 0
-18 -24 -94 1 0
-18 -24 94 -1 0
-19 -21 87 0
-19 -21 -88 1 0
-19 -21 88 -1 0
-19 -22 91 0
-19 -22 -92 1 0
-19 -22 92 -1 0
-19 -24 95 0
-19 -24 -96 1 0
-19 -24 96 -1 0
-20 -21 89 0
-20 -21 -90 1 0
-20 -21 90 -1 0
-20 -22 93 0
-20 -22 -94 1 0
-20 -22 94 -1 0
-20 -23 95 0
-20 -23 -96 1 0
-20 -23 96 -1 0
-21 -26 85 0
-21 -26 -86 2 0
-21 -26 86 -2 0
-21 -27 87 0
-21 -27 -88 2 0
-21 -27 88 -2 0
-21 -28 89 0
-21 -28 -90 2 0
-21 -28 90 -2 0
-22 -25 85 0
-22 -25 -86 2 0
-22 -25 86 -2 0
-22 -27 91 0
-22 -27 -92 2 0
-22 -27 92 -2 0
-22 -28 93 0
-22 -28 -94 2 0
-22 -28 94 -2 0
-23 -25 87 0
-23 -25 -88 2 0
-23 -25 88 -2 0
-23 -26 91 0
-23 -26 -92 2 0
-23 -26 92 -2 0
-23 -28 95 0
-23 -28 -96 2 0
-23 -28 96 -2 0
-24 -25 89 0
-24 -25 -90 2 0
-24 -25 90 -2 0
-24 -26 93 0
-24 -26 -94 2 0
-24 -26 94 -2 0
-24 -27 95 0
-24 -27 -96 2 0
-24 -27 96 -2 0
-25 -30 85 0
-25 -30 -86 3 0
-25 -30 86 -3 0
-25 -31 87 0
-25 -31 -88 3 0
-25 -31 88 -3 0
-25 -32 89 0
-25 -32 -90 3 0
-25 -32 90 -3 0
-26 -29 85 0
-26 -29 -86 3 0
-26 -29 86 -3 0
-26 -31 91 0
-26 -31 -92 3 0
-26 -31 92 -3 0
-26 -32 93 0
-26 -32 -94 3 0
-26 -32 94 -3 0
-27 -29 87 0
-27 -29 -88 3 0
-27 -29 88 -3 0
-27 -30 91 0
-27 -30 -92 3 0
-27 -30 92 -3 0
-27 -32 95 0
-27 -32 -96 3 0
-27 -32 96 -3 0
-28 -29 89 0
-28 -29 -90 3 0
-28 -29 90 -3 0
-28 -30 93 0
-28 -30 -94 3 0
-28 -30 94 -3 0
-28 -31 95 0
-28 -31 -96 3 0
-28 -31 96 -3 0
-29 -34 85 0
-29 -34 -86 4 0
-29 -34 86 -4 0
-29 -35 87 0
-29 -35 -88 4 0
-29 -35 88 -4 0
-29 -36 89 0
-29 -36 -90 4 0
-29 -36 90 -4 0
-30 -33 85 0
-30 -33 -86 4 0
-30 -33 86 -4 0
-30 -35 91 0
-30 -35 -92 4 0
-30 -35 92 -4 0
-30 -36 93 0
-30 -36 -94 4 0
-30 -36 94 -4 0
-31 -33 87 0
-31 -33 -88 4 0
-31 -33 88 -4 0
-31 -34 91 0
-31 -34 -92 4 0
-31 -34 92 -4 0
-31 -36 95 0
-31 -36 -96 4 0
-31 -36 96 -4 0
-32 -33 89 0
-32 -33 -90 4 0
-32 -33 90 -4 0
-32 -34 93 0
-32 -34 -94 4 0
-32 -34 94 -4 0
-32 -35 95 0
-32 -35 -96 4 0
-32 -35 96 -4 0
-33 -38 85 0
-33 -38 -86 5 0
-33 -38 86 -5 0
-33 -39 87 0
-33 -39 -88 5 0
-33 -39 88 -5 0
-33 -40 89 0
-33 -40 -90 5 0
-33 -40 90 -5 0
-34 -37 85 0
-34 -37 -86 5 0
-34 -37 86 -5 0
-34 -39 91 0
-34 -39 -92 5 0
-34 -39 92 -5 0
-34 -40 93 0
-34 -40 -94 5 0
-34 -40 94 -5 0
-35 -37 87 0
-35 -37 -88 5 0
-35 -37 88 -5 0
-35 -38 91 0
-35 -38 -92 5 0
-35 -38 92 -5 0
-35 -40 95 0
-35 -40 -96 5 0
-35 -40 96 -5 0
-36 -37 89 0
-36 -37 -90 5 0
-36 -37 90 -5 0
-36 -38 93 0
-36 -38 -94 5 0
-36 -38 94 -5 0
-36 -39 95 0
-36 -39 -96 5 0
-36 -39 96 -5 0
-37 -42 85 0
-37 -42 -86 6 0
-37 -42 86 -6 0
-37 -43 87 0
-37 -43 -88 6 0
-37 -43 88 -6 0
-37 -44 89 0
-37 -44 -90 6 0
-37 -44 90 -6 0
-38 -41 85 0
-38 -41 -86 6 0
-38 -41 86 -6 0
-38 -43 91 0
-38 -43 -92 6 0
-38 -43 92 -6 0
-38 -44 93 0
-38 -44 -94 6 0
-38 -44 94 -6 0
-39 -41 87 0
-39 -41 -88 6 0
-39 -41 88 -6 0
-39 -42 91 0
-39 -42 -92 6 0
-39 -42 92 -6 0
-39 -44 95 0
-39 -44 -96 6 0
-39 -44 96 -6 0
-40 -41 89 0
-40 -41 -90 6 0
-40 -41 90 -6 0
-40 -42 93 0
-40 -42 -94 6 0
-40 -42 94 -6 0
-40 -43 95 0
-40 -43 -96 6 0
-40 -43 96 -6 0
-41 -46 85 0
-41 -46 -86 7 0
-41 -46 86 -7 0
-41 -47 87 0
-41 -47 -88 7 0
-41 -47 88 -7 0
-41 -48 89 0
-41 -48 -90 7 0
-41 -48 90 -7 0
-42 -45 85 0
-42 -45 -86 7 0
-42 -45 86 -7 0
-42 -47 91 0
-42 -47 -92 7 0
-42 -47 92 -7 0
-42 -48 93 0
-42 -48 -94 7 0
-42 -48 94 -7 0
-43 -45 87 0
-43 -45 -88 7 0
-43 -45 88 -7 0
-43 -46 91 0
-43 -46 -92 7 0
-43 -46 92 -7 0
-43 -48 95 0
-43 -48 -96 7 0
-43 -48 96 -7 0
-44 -45 89 0
-44 -45 -90 7 0
-44 -45 90 -7 0
-44 -46 93 0
-44 -46 -94 7 0
-44 -46 94 -7 0
-44 -47 95 0
-44 -47 -96 7 0
-44 -47 96 -7 0
-45 -50 85 0
-45 -50 -86 8 0
-45 -50 86 -8 0
-45 -51 87 0
-45 -51 -88 8 0
-45 -51 88 -8 0
-45 -52 89 0
-45 -52 -90 8 0
-45 -52 90 -8 0
-46 -49 85 0
-46 -49 -86 8 0
-46 -49 86 -8 0
-46 -51 91 0
-46 -51 -92 8 0
-46 -51 92 -8 0
-46 -52 93 0
-46 -52 -94 8 0
-46 -52 94 -8 0
-47 -49 87 0
-47 -49 -88 8 0
-47 -49 88 -8 0
-47 -50 91 0
-47 -50 -92 8 0
-47 -50 92 -8 0
-47 -52 95 0
-47 -52 -96 8 0
-47 -52 96 -8 0
-48 -49 89 0
-48 -49 -90 8 0
-48 -49 90 -8 0
-48 -50 93 0
-48 -50 -94 8 0
-48 -50 94 -8 0
-48 -51 95 0
-48 -51 -96 8 0
-48 -51 96 -8 0
-49 -54 85 0
-49 -54 -86 9 0
-49 -54 86 -9 0
-49 -55 87 0
-49 -55 -88 9 0
-49 -55 88 -9 0
-49 -56 89 0
-49 -56 -90 9 0
-49 -56 90 -9 0
-50 -53 85 0
-50 -53 -86 9 0
-50 -53 86 -9 0
-50 -55 91 0
-50 -55 -92 9 0
-50 -55 92 -9 0
-50 -56 93 0
-50 -56 -94 9 0
-50 -56 94 -9 0
-51 -53 87 0
-51 -53 -88 9 0
-51 -53 88 -9 0
-51 -54 91 0
-51 -54 -92 9 0
-51 -54 92 -9 0
-51 -56 95 0
-51 -56 -96 9 0
-51 -56 96 -9 0
-52 -53 89 0
-52 -53 -90 9 0
-52 -53 90 -9 0
-52 -54 93 0
-52 -54 -94 9 0
-52 -54 94 -9 0
-52 -55 95 0
-52 -55 -96 9 0
-52 -55 96 -9 0
-53 -58 85 0
-53 -58 -86 10 0
-53 -58 86 -10 0
-53 -59 87 0
-53 -59 -88 10 0
-53 -59 88 -10 0
-53 -60 89 0
-53 -60 -90 10 0
-53 -60 90 -10 0
-54 -57 85 0
-54 -57 -86 10 0
-54 -57 86 -10 0
-54 -59 91 0
-54 -59 -92 10 0
-54 -59 92 -10 0
-54 -60 93 0
-54 -60 -94 10 0
-54 -60 94 -10 0
-55 -57 87 0
-55 -57 -88 10 0
-55 -57 88 -10 0
-55 -58 91 0
-55 -58 -92 10 0
-55 -58 92 -10 0
-55 -60 95 0
-55 -60 -96 10 0
-55 -60 96 -10 0
-56 -57 89 0
-56 -57 -90 10 0
-56 -57 90 -10 0
-56 -58 93 0
-56 -58 -94 10 0
-56 -58 94 -10 0
-56 -59 95 0
-56 -59 -96 10 0
-56 -59 96 -10 0
-57 -62 85 0
-57 -62 -86 11 0
-57 -62 86 -11 0
-57 -63 87 0
-57 -63 -88 11 0
-57 -63 88 -11 0
-57 -64 89 0
-57 -64 -90 11 0
-57 -64 90 -11 0
-58 -61 85 0
-58 -61 -86 11 0
-58 -61 86 -11 0
-58 -63 91 0
-58 -63 -92 11 0
-58 -63 92 -11 0
-58 -64 93 0
-58 -64 -94 11 0
-58 -64 94 -11 0
-59 -61 87 0
-59 -61 -88 11 0
-59 -61 88 -11 0
-59 -62 91 0
-59 -62 -92 11 0
-59 -62 92 -11 0
-59 -64 95 0
-59 -64 -96 11 0
-59 -64 96 -11 0
-60 -61 89 0
-60 -61 -90 11 0
-60 -61 90 -11 0
-60 -62 93 0
-60 -62 -94 11 0
-60 -62 94 -11 0
-60 -63 95 0
-60 -63 -96 11 0
-60 -63 96 -11 0
-61 -66 85 0
-61 -66 -86 12 0
-61 -66 86 -12 0
-61 -67 87 0
-61 -67 -88 12 0
-61 -67 88 -12 0
-61 -68 89 0
-61 -68 -90 12 0
-61 -68 90 -12 0
-62 -65 85 0
-62 -65 -86 12 0
-62 -65 86 -12 0
-62 -67 91 0
-62 -67 -92 12 0
-62 -67 92 -12 0
-62 -68 93 0
-62 -68 -94 12 0
-62 -68 94 -12 0
-63 -65 87 0
-63 -65 -88 12 0
-63 -65 88 -12 0
-63 -66 91 0
-63 -66 -92 12 0
-63 -66 92 -12 0
-63 -68 95 0
-63 -68 -96 12 0
-63 -68 96 -12 0
-64 -65 89 0
-64 -65 -90 12 0
-64 -65 90 -12 0
-64 -66 93 0
-64 -66 -94 12 0
-64 -66 94 -12 0
-64 -67 95 0
-64 -67 -96 12 0
-64 -67 96 -12 0
-65 -70 85 0
-65 -70 -86 13 0
-65 -70 86 -13 0
-65 -71 87 0
-65 -71 -88 13 0
-65 -71 88 -13 0
-65 -72 89 0
-65 -72 -90 13 0
-65 -72 90 -13 0
-66 -69 85 0
-66 -69 -86 13 0
-66 -69 86 -13 0
-66 -71 91 0
-66 -71 -92 13 0
-66 -71 92 -13 0
-66 -72 93 0
-66 -72 -94 13 0
-66 -72 94 -13 0
-67 -69 87 0
-67 -69 -88 13 0
-67 -69 88 -13 0
-67 -70 91 0
-67 -70 -92 13 0
-67 -70 92 -13 0
-67 -72 95 0
-67 -72 -96 13 0
-67 -72 96 -13 0
-68 -69 89 0
-68 -69 -90 13 0
-68 -69 90 -13 0
-68 -70 93 0
-68 -70 -94 13 0
-68 -70 94 -13 0
-68 -71 95 0
-68 -71 -96 13 0
-68 -71 96 -13 0
-69 -74 85 0
-69 -74 -86 14 0
-69 -74 86 -14 0
-69 -75 87 0
-69 -75 -88 14 0
-69 -75 88 -14 0
-69 -76 89 0
-69 -76 -90 14 0
-69 -76 90 -14 0
-70 -73 85 0
-70 -73 -86 14 0
-70 -73 86 -14 0
-70 -75 91 0
-70 -75 -92 14 0
-70 -75 92 -14 0
-70 -76 93 0
-70 -76 -94 14 0
-70 -76 94 -14 0
-71 -73 87 0
-71 -73 -88 14 0
-71 -73 88 -14 0
-71 -74 91 0
-71 -74 -92 14 0
-71 -74 92 -14 0
-71 -76 95 0
-71 -76 -96 14 0
-71 -76 96 -14 0
-72 -73 89 0
-72 -73 -90 14 0
-72 -73 90 -14 0
-72 -74 93 0
-72 -74 -94 14 0
-72 -74 94 -14 0
-72 -75 95 0
-72 -75 -96 14 0
-72 -75 96 -14 0
-73 -78 85 0
-73 -78 -86 15 0
-73 -78 86 -15 0
-73 -79 87 0
-73 -79 -88 15 0
-73 -79 88 -15 0
-73 -80 89 0
-73 -80 -90 15 0
-73 -80 90 -15 0
-74 -77 85 0
-74 -77 -86 15 0
-74 -77 86 -15 0
-74 -79 91 0
-74 -79 -92 15 0
-74 -79 92 -15 0
-74 -80 93 0
-74 -80 -94 15 0
-74 -80 94 -15 0
-75 -77 87 0
-75 -77 -88 15 0
-75 -77 88 -15 0
-75 -78 91 0
-75 -78 -92 15 0
-75 -78 92 -15 0
-75 -80 95 0
-75 -80 -96 15 0
-75 -80 96 -15 0
-76 -77 89 0
-76 -77 -90 15 0
-76 -77 90 -15 0
-76 -78 93 0
-76 -78 -94 15 0
-76 -78 94 -15 0
-76 -79 95 0
-76 -79 -96 15 0
-76 -79 96 -15 0
-77 -82 85 0
-77 -82 -86 16 0
-77 -82 86 -16 0
-77 -83 87 0
-77 -83 -88 16 0
-77 -83 88 -16 0
-77 -84 89 0
-77 -84 -90 16 0
-77 -84 90 -16 0
-78 -81 85 0
-78 -81 -86 16 0
-78 -81 86 -16 0
-78 -83 91 0
-78 -83 -92 16 0
-78 -83 92 -16 0
-78 -84 93 0
-78 -84 -94 16 0
-78 -84 94 -16 0
-79 -81 87 0
-79 -81 -88 16 0
-79 -81 88 -16 0
-79 -82 91 0
-79 -82 -92 16 0
-79 -82 92 -16 0
-79 -84 95 0
-79 -84 -96 16 0
-79 -84 96 -16 0
-80 -81 89 0
-80 -81 -90 16 0
-80 -81 90 -16 0
-80 -82 93 0
-80 -82 -94 16 0
-80 -82 94 -16 0
-80 -83 95 0
-80 -83 -96 16 0
-80 -83 96 -16 0
c X
-98 17 0
-97 17 0
-98 22 0
-97 22 0
-98 1 0
-97 -1 0
98 -17 -22 -1 0
97 -17 -22 1 0
-100 17 0
-99 17 0
-100 23 0
-99 23 0
-100 1 0
-99 -1 0
100 -17 -23 -1 0
99 -17 -23 1 0
-102 17 0
-101 17 0
-102 24 0
-101 24 0
-102 1 0
-101 -1 0
102 -17 -24 -1 0
101 -17 -24 1 0
-104 18 0
-103 18 0
-104 21 0
-103 21 0
-104 1 0
-103 -1 0
104 -18 -21 -1 0
103 -18 -21 1 0
-106 18 0
-105 18 0
-106 23 0
-105 23 0
-106 1 0
-105 -1 0
106 -18 -23 -1 0
105 -18 -23 1 0
-108 18 0
-107 18 0
-108 24 0
-107 24 0
-108 1 0
-107 -1 0
108 -18 -24 -1 0
107 -18 -24 1 0
-110 19 0
-109 19 0
-110 21 0
-109 21 0
-110 1 0
-109 -1 0
110 -19 -21 -1 0
109 -19 -21 1 0
-112 19 0
-111 19 0
-112 22 0
-111 22 0
-112 1 0
-111 -1 0
112 -19 -22 -1 0
111 -19 -22 1 0
-114 19 0
-113 19 0
-114 24 0
-113 24 0
-114 1 0
-113 -1 0
114 -19 -24 -1 0
113 -19 -24 1 0
-116 20 0
-115 20 0
-116 21 0
-115 21 0
-116 1 0
-115 -1 0
116 -20 -21 -1 0
115 -20 -21 1 0
-118 20 0
-117 20 0
-118 22 0
-117 22 0
-118 1 0
-117 -1 0
118 -20 -22 -1 0
117 -20 -22 1 0
-120 20 0
-119 20 0
-120 23 0
-119 23 0
-120 1 0
-119 -1 0
120 -20 -23 -1 0
119 -20 -23 1 0
-122 21 0
-121 21 0
-122 26 0
-121 26 0
-122 2 0
-121 -2 0
122 -21 -26 -2 0
121 -21 -26 2 0
-124 21 0
-123 21 0
-124 27 0
-123 27 0
-124 2 0
-123 -2 0
124 -21 -27 -2 0
123 -21 -27 2 0
-126 21 0
-125 21 0
-126 28 0
-125 28 0
-126 2 0
-125 -2 0
126 -21 -28 -2 0
125 -21 -28 2 0
-128 22 0
-127 22 0
-128 25 0
-127 25 0
-128 2 0
-127 -2 0
128 -22 -25 -2 0
127 -22 -25 2 0
-130 22 0
-129 22 0
-130 27 0
-129 27 0
-130 2 0
-129 -2 0
130 -22 -27 -2 0
129 -22 -27 2 0
-132 22 0
-131 22 0
-132 28 0
-131 28 0
-132 2 0
-131 -2 0
132 -22 -28 -2 0
131 -22 -28 2 0
-134 23 0
-133 23 0
-134 25 0
-133 25 0
-134 2 0
-133 -2 0
134 -23 -25 -2 0
133 -23 -25 2 0
-136 23 0
-135 23 0
-136 26 0
-135 26 0
-136 2 0
-135 -2 0
136 -23 -26 -2 0
135 -23 -26 2 0
-138 23 0
-137 23 0
-138 28 0
-137 28 0
-138 2 0
-137 -2 0
138 -23 -28 -2 0
137 -23 -28 2 0
-140 24 0
-139 24 0
-140 25 0
-139 25 0
-140 2 0
-139 -2 0
140 -24 -25 -2 0
139 -24 -25 2 0
-142 24 0
-141 24 0
-142 26 0
-141 26 0
-142 2 0
-141 -2 0
142 -24 -26 -2 0
141 -24 -26 2 0
-144 24 0
-143 24 0
-144 27 0
-143 27 0
-144 2 0
-143 -2 0
144 -24 -27 -2 0
143 -24 -27 2 0
-146 25 0
-145 25 0
-146 30 0
-145 30 0
-146 3 0
-145 -3 0
146 -25 -30 -3 0
145 -25 -30 3 0
-148 25 0
-147 25 0
-148 31 0
-147 31 0
-148 3 0
-147 -3 0
148 -25 -31 -3 0
147 -25 -31 3 0
-150 25 0
-149 25 0
-150 32 0
-149 32 0
-150 3 0
-149 -3 0
150 -25 -32 -3 0
149 -25 -32 3 0
-152 26 0
-151 26 0
-152 29 0
-151 29 0
-152 3 0
-151 -3 0
152 -26 -29 -3 0
151 -26 -29 3 0
-154 26 0
-153 26 0
-154 31 0
-153 31 0
-154 3 0
-153 -3 0
154 -26 -31 -3 0
153 -26 -31 3 0
-156 26 0
-155 26 0
-156 32 0
-155 32 0
-156 3 0
-155 -3 0
156 -26 -32 -3 0
155 -26 -32 3 0
-158 27 0
-157 27 0
-158 29 0
-157 29 0
-158 3 0
-157 -3 0
158 -27 -29 -3 0
157 -27 -29 3 0
-160 27 0
-159 27 0
-160 30 0
-159 30 0
-160 3 0
-159 -3 0
160 -27 -30 -3 0
159 -27 -30 3 0
-162 27 0
-161 27 0
-162 32 0
-161 32 0
-162 3 0
-161 -3 0
162 -27 -32 -3 0
161 -27 -32 3 0
-164 28 0
-163 28 0
-164 29 0
-163 29 0
-164 3 0
-163 -3 0
164 -28 -29 -3 0
163 -28 -29 3 0
-166 28 0
-165 28 0
-166 30 0
-165 30 0
-166 3 0
-165 -3 0
166 -28 -30 -3 0
165 -28 -30 3 0
-168 28 0
-167 28 0
-168 31 0
-167 31 0
-168 3 0
-167 -3 0
168 -28 -31 -3 0
167 -28 -31 3 0
-170 29 0
-169 29 0
-170 34 0
-169 34 0
-170 4 0
-169 -4 0
170 -29 -34 -4 0
169 -29 -34 4 0
-172 29 0
-171 29 0
-172 35 0
-171 35 0
-172 4 0
-171 -4 0
172 -29 -35 -4 0
171 -29 -35 4 0
-174 29 0
-173 29 0
-174 36 0
-173 36 0
-174 4 0
-173 -4 0
174 -29 -36 -4 0
173 -29 -36 4 0
-176 30 0
-175 30 0
-176 33 0
-175 33 0
-176 4 0
-175 -4 0
176 -30 -33 -4 0
175 -30 -33 4 0
-178 30 0
-177 30 0
-178 35 0
-177 35 0
-178 4 0
-177 -4 0
178 -30 -35 -4 0
177 -30 -35 4 0
-180 30 0
-179 30 0
-180 36 0
-179 36 0
-180 4 0
-179 -4 0
180 -30 -36 -4 0
179 -30 -36 4 0
-182 31 0
-181 31 0
-182 33 0
-181 33 0
-182 4 0
-181 -4 0
182 -31 -33 -4 0
181 -31 -33 4 0
-184 31 0
-183 31 0
-184 34 0
-183 34 0
-184 4 0
-183 -4 0
184 -31 -34 -4 0
183 -31 -34 4 0
-186 31 0
-185 31 0
-186 36 0
-185 36 0
-186 4 0
-185 -4 0
186 -31 -36 -4 0
185 -31 -36 4 0
-188 32 0
-187 32 0
-188 33 0
-187 33 0
-188 4 0
-187 -4 0
188 -32 -33 -4 0
187 -32 -33 4 0
-190 32 0
-189 32 0
-190 34 0
-189 34 0
-190 4 0
-189 -4 0
190 -32 -34 -4 0
189 -32 -34 4 0
-192 32 0
-191 32 0
-192 35 0
-191 35 0
-192 4 0
-191 -4 0
192 -32 -35 -4 0
191 -32 -35 4 0
-194 33 0
-193 33 0
-194 38 0
-193 38 0
-194 5 0
-193 -5 0
194 -33 -38 -5 0
193 -33 -38 5 0
-196 33 0
-195 33 0
-196 39 0
-195 39 0
-196 5 0
-195 -5 0
196 -33 -39 -5 0
195 -33 -39 5 0
-198 33 0
-197 33 0
-198 40 0
-197 40 0
-198 5 0
-197 -5 0
198 -33 -40 -5 0
197 -33 -40 5 0
-200 34 0
-199 34 0
-200 37 0
-199 37 0
-200 5 0
-199 -5 0
200 -34 -37 -5 0
199 -34 -37 5 0
-202 34 0
-201 34 0
-202 39 0
-201 39 0
-202 5 0
-201 -5 0
202 -34 -39 -5 0
201 -34 -39 5 0
-204 34 0
-203 34 0
-204 40 0
-203 40 0
-204 5 0
-203 -5 0
204 -34 -40 -5 0
203 -34 -40 5 0
-206 35 0
-205 35 0
-206 37 0
-205 37 0
-206 5 0
-205 -5 0
206 -35 -37 -5 0
205 -35 -37 5 0
-208 35 0
-207 35 0
-208 38 0
-207 38 0
-208 5 0
-207 -5 0
208 -35 -38 -5 0
207 -35 -38 5 0
-210 35 0
-209 35 0
-210 40 0
-209 40 0
-210 5 0
-209 -5 0
210 -35 -40 -5 0
209 -35 -40 5 0
-212 36 0
-211 36 0
-212 37 0
-211 37 0
-212 5 0
-211 -5 0
212 -36 -37 -5 0
211 -36 -37 5 0
-214 36 0
-213 36 0
-214 38 0
-213 38 0
-214 5 0
-213 -5 0
214 -36 -38 -5 0
213 -36 -38 5 0
-216 36 0
-215 36 0
-216 39 0
-215 39 0
-216 5 0
-215 -5 0
216 -36 -39 -5 0
215 -36 -39 5 0
-218 37 0
-217 37 0
-218 42 0
-217 42 0
-218 6 0
-217 -6 0
218 -37 -42 -6 0
217 -37 -42 6 0
-220 37 0
-219 37 0
-220 43 0
-219 43 0
-220 6 0
-219 -6 0
220 -37 -43 -6 0
219 -37 -43 6 0
-222 37 0
-221 37 0
-222 44 0
-221 44 0
-222 6 0
-221 -6 0
222 -37 -44 -6 0
221 -37 -44 6 0
-224 38 0
-223 38 0
-224 41 0
-223 41 0
-224 6 0
-223 -6 0
224 -38 -41 -6 0
223 -38 -41 6 0
-226 38 0
-225 38 0
-226 43 0
-225 43 0
-226 6 0
-225 -6 0
226 -38 -43 -6 0
225 -38 -43 6 0
-228 38 0
-227 38 0
-228 44 0
-227 44 0
-228 6 0
-227 -6 0
228 -38 -44 -6 0
227 -38 -44 6 0
-230 39 0
-229 39 0
-230 41 0
-229 41 0
-230 6 0
-229 -6 0
230 -39 -41 -6 0
229 -39 -41 6 0
-232 39 0
-231 39 0
-232 42 0
-231 42 0
-232 6 0
-231 -6 0
232 -39 -42 -6 0
231 -39 -42 6 0
-234 39 0
-233 39 0
-234 44 0
-233 44 0
-234 6 0
-233 -6 0
234 -39 -44 -6 0
233 -39 -44 6 0
-236 40 0
-235 40 0
-236 41 0
-235 41 0
-236 6 0
-235 -6 0
236 -40 -41 -6 0
235 -40 -41 6 0
-238 40 0
-237 40 0
-238 42 0
-237 42 0
-238 6 0
-237 -6 0
238 -40 -42 -6 0
237 -40 -42 6 0
-240 40 0
-239 40 0
-240 43 0
-239 43 0
-240 6 0
-239 -6 0
240 -40 -43 -6 0
239 -40 -43 6 0
-242 41 0
-241 41 0
-242 46 0
-241 46 0
-242 7 0
-241 -7 0
242 -41 -46 -7 0
241 -41 -46 7 0
-244 41 0
-243 41 0
-244 47 0
-243 47 0
-244 7 0
-243 -7 0
244 -41 -47 -7 0
243 -41 -47 7 0
-246 41 0
-245 41 0
-246 48 0
-245 48 0
-246 7 0
-245 -7 0
246 -41 -48 -7 0
245 -41 -48 7 0
-248 42 0
-247 42 0
-248 45 0
-247 45 0
-248 7 0
-247 -7 0
248 -42 -45 -7 0
247 -42 -45 7 0
-250 42 0
-249 42 0
-250 47 0
-249 47 0
-250 7 0
-249 -7 0
250 -42 -47 -7 0
249 -42 -47 7 0
-252 42 0
-251 42 0
-252 48 0
-251 48 0
-252 7 0
-251 -7 0
252 -42 -48 -7 0
251 -42 -48 7 0
-254 43 0
-253 43 0
-254 45 0
-253 45 0
-254 7 0
-253 -7 0
254 -43 -45 -7 0
253 -43 -45 7 0
-256 43 0
-255 43 0
-256 46 0
-255 46 0
-256 7 0
-255 -7 0
256 -43 -46 -7 0
255 -43 -46 7 0
-258 43 0
-257 43 0
-258 48 0
-257 48 0
-258 7 0
-257 -7 0
258 -43 -48 -7 0
257 -43 -48 7 0
-260 44 0
-259 44 0
-260 45 0
-259 45 0
-260 7 0
-259 -7 0
260 -44 -45 -7 0
259 -44 -45 7 0
-262 44 0
-261 44 0
-262 46 0
-261 46 0
-262 7 0
-261 -7 0
262 -44 -46 -7 0
261 -44 -46 7 0
-264 44 0
-263 44 0
-264 47 0
-263 47 0
-264 7 0
-263 -7 0
264 -44 -47 -7 0
263 -44 -47 7 0
-266 45 0
-265 45 0
-266 50 0
-265 50 0
-266 8 0
-265 -8 0
266 -45 -50 -8 0
265 -45 -50 8 0
-268 45 0
-267 45 0
-268 51 0
-267 51 0
-268 8 0
-267 -8 0
268 -45 -51 -8 0
267 -45 -51 8 0
-270 45 0
-269 45 0
-270 52 0
-269 52 0
-270 8 0
-269 -8 0
270 -45 -52 -8 0
269 -45 -52 8 0
-272 46 0
-271 46 0
-272 49 0
-271 49 0
-272 8 0
-271 -8 0
272 -46 -49 -8 0
271 -46 -49 8 0
-274 46 0
-273 46 0
-274 51 0
-273 51 0
-274 8 0
-273 -8 0
274 -46 -51 -8 0
273 -46 -51 8 0
-276 46 0
-275 46 0
-276 52 0
-275 52 0
-276 8 0
-275 -8 0
276 -46 -52 -8 0
275 -46 -52 8 0
-278 47 0
-277 47 0
-278 49 0
-277 49 0
-278 8 0
-277 -8 0
278 -47 -49 -8 0
277 -47 -49 8 0
-280 47 0
-279 47 0
-280 50 0
-279 50 0
-280 8 0
-279 -8 0
280 -47 -50 -8 0
279 -47 -50 8 0
-282 47 0
-281 47 0
-282 52 0
-281 52 0
-282 8 0
-281 -8 0
282 -47 -52 -8 0
281 -47 -52 8 0
-284 48 0
-283 48 0
-284 49 0
-283 49 0
-284 8 0
-283 -8 0
284 -48 -49 -8 0
283 -48 -49 8 0
-286 48 0
-285 48 0
-286 50 0
-285 50 0
-286 8 0
-285 -8 0
286 -48 -50 -8 0
285 -48 -50 8 0
-288 48 0
-287 48 0
-288 51 0
-287 51 0
-288 8 0
-287 -8 0
288 -48 -51 -8 0
287 -48 -51 8 0
-290 49 0
-289 49 0
-290 54 0
-289 54 0
-290 9 0
-289 -9 0
290 -49 -54 -9 0
289 -49 -54 9 0
-292 49 0
-291 49 0
-292 55 0
-291 55 0
-292 9 0
-291 -9 0
292 -49 -55 -9 0
291 -49 -55 9 0
-294 49 0
-293 49 0
-294 56 0
-293 56 0
-294 9 0
-293 -9 0
294 -49 -56 -9 0
293 -49 -56 9 0
-296 50 0
-295 50 0
-296 53 0
-295 53 0
-296 9 0
-295 -9 0
296 -50 -53 -9 0
295 -50 -53 9 0
-298 50 0
-297 50 0
-298 55 0
-297 55 0
-298 9 0
-297 -9 0
298 -50 -55 -9 0
297 -50 -55 9 0
-300 50 0
-299 50 0
-300 56 0
-299 56 0
-300 9 0
-299 -9 0
300 -50 -56 -9 0
299 -50 -56 9 0
-302 51 0
-301 51 0
-302 53 0
-301 53 0
-302 9 0
-301 -9 0
302 -51 -53 -9 0
301 -51 -53 9 0
-304 51 0
-303 51 0
-304 54 0
-303 54 0
-304 9 0
-303 -9 0
304 -51 -54 -9 0
303 -51 -54 9 0
-306 51 0
-305 51 0
-306 56 0
-305 56 0
-306 9 0
-305 -9 0
306 -51 -56 -9 0
305 -51 -56 9 0
-308 52 0
-307 52 0
-308 53 0
-307 53 0
-308 9 0
-307 -9 0
308 -52 -53 -9 0
307 -52 -53 9 0
-310 52 0
-309 52 0
-310 54 0
-309 54 0
-310 9 0
-309 -9 0
310 -52 -54 -9 0
309 -52 -54 9 0
-312 52 0
-311 52 0
-312 55 0
-311 55 0
-312 9 0
-311 -9 0
312 -52 -55 -9 0
311 -52 -55 9 0
-314 53 0
-313 53 0
-314 58 0
-313 58 0
-314 10 0
-313 -10 0
314 -53 -58 -10 0
313 -53 -58 10 0
-316 53 0
-315 53 0
-316 59 0
-315 59 0
-316 10 0
-315 -10 0
316 -53 -59 -10 0
315 -53 -59 10 0
-318 53 0
-317 53 0
-318 60 0
-317 60 0
-318 10 0
-317 -10 0
318 -53 -60 -10 0
317 -53 -60 10 0
-320 54 0
-319 54 0
-320 57 0
-319 57 0
-320 10 0
-319 -10 0
320 -54 -57 -10 0
319 -54 -57 10 0
-322 54 0
-321 54 0
-322 59 0
-321 59 0
-322 10 0
-321 -10 0
322 -54 -59 -10 0
321 -54 -59 10 0
-324 54 0
-323 54 0
-324 60 0
-323 60 0
-324 10 0
-323 -10 0
324 -54 -60 -10 0
323 -54 -60 10 0
-326 55 0
-325 55 0
-326 57 0
-325 57 0
-326 10 0
-325 -10 0
326 -55 -57 -10 0
325 -55 -57 10 0
-328 55 0
-327 55 0
-328 58 0
-327 58 0
-328 10 0
-327 -10 0
328 -55 -58 -10 0
327 -55 -58 10 0
-330 55 0
-329 55 0
-330 60 0
-329 60 0
-330 10 0
-329 -10 0
330 -55 -60 -10 0
329 -55 -60 10 0
-332 56 0
-331 56 0
-332 57 0
-331 57 0
-332 10 0
-331 -10 0
332 -56 -57 -10 0
331 -56 -57 10 0
-334 56 0
-333 56 0
-334 58 0
-333 58 0
-334 10 0
-333 -10 0
334 -56 -58 -10 0
333 -56 -58 10 0
-336 56 0
-335 56 0
-336 59 0
-335 59 0
-336 10 0
-335 -10 0
336 -56 -59 -10 0
335 -56 -59 10 0
-338 57 0
-337 57 0
-338 62 0
-337 62 0
-338 11 0
-337 -11 0
338 -57 -62 -11 0
337 -57 -62 11 0
-340 57 0
-339 57 0
-340 63 0
-339 63 0
-340 11 0
-339 -11 0
340 -57 -63 -11 0
339 -57 -63 11 0
-342 57 0
-341 57 0
-342 64 0
-341 64 0
-342 11 0
-341 -11 0
342 -57 -64 -11 0
341 -57 -64 11 0
-344 58 0
-343 58 0
-344 61 0
-343 61 0
-344 11 0
-343 -11 0
344 -58 -61 -11 0
343 -58 -61 11 0
-346 58 0
-345 58 0
-346 63 0
-345 63 0
-346 11 0
-345 -11 0
346 -58 -63 -11 0
345 -58 -63 11 0
-348 58 0
-347 58 0
-348 64 0
-347 64 0
-348 11 0
-347 -11 0
348 -58 -64 -11 0
347 -58 -64 11 0
-350 59 0
-349 59 0
-350 61 0
-349 61 0
-350 11 0
-349 -11 0
350 -59 -61 -11 0
349 -59 -61 11 0
-352 59 0
-351 59 0
-352 62 0
-351 62 0
-352 11 0
-351 -11 0
352 -59 -62 -11 0
351 -59 -62 11 0
-354 59 0
-353 59 0
-354 64 0
-353 64 0
-354 11 0
-353 -11 0
354 -59 -64 -11 0
353 -59 -64 11 0
-356 60 0
-355 60 0
-356 61 0
-355 61 0
-356 11 0
-355 -11 0
356 -60 -61 -11 0
355 -60 -61 11 0
-358 60 0
-357 60 0
-358 62 0
-357 62 0
-358 11 0
-357 -11 0
358 -60 -62 -11 0
357 -60 -62 11 0
-360 60 0
-359 60 0
-360 63 0
-359 63 0
-360 11 0
-359 -11 0
360 -60 -63 -11 0
359 -60 -63 11 0
-362 61 0
-361 61 0
-362 66 0
-361 66 0
-362 12 0
-361 -12 0
362 -61 -66 -12 0
361 -61 -66 12 0
-364 61 0
-363 61 0
-364 67 0
-363 67 0
-364 12 0
-363 -12 0
364 -61 -67 -12 0
363 -61 -67 12 0
-366 61 0
-365 61 0
-366 68 0
-365 68 0
-366 12 0
-365 -12 0
366 -61 -68 -12 0
365 -61 -68 12 0
-368 62 0
-367 62 0
-368 65 0
-367 65 0
-368 12 0
-367 -12 0
368 -62 -65 -12 0
367 -62 -65 12 0
-370 62 0
-369 62 0
-370 67 0
-369 67 0
-370 12 0
-369 -12 0
370 -62 -67 -12 0
369 -62 -67 12 0
-372 62 0
-371 62 0
-372 68 0
-371 68 0
-372 12 0
-371 -12 0
372 -62 -68 -12 0
371 -62 -68 12 0
-374 63 0
-373 63 0
-374 65 0
-373 65 0
-374 12 0
-373 -12 0
374 -63 -65 -12 0
373 -63 -65 12 0
-376 63 0
-375 63 0
-376 66 0
-375 66 0
-376 12 0
-375 -12 0
376 -63 -66 -12 0
375 -63 -66 12 0
-378 63 0
-377 63 0
-378 68 0
-377 68 0
-378 12 0
-377 -12 0
378 -63 -68 -12 0
377 -63 -68 12 0
-380 64 0
-379 64 0
-380 65 0
-379 65 0
-380 12 0
-379 -12 0
380 -64 -65 -12 0
379 -64 -65 12 0
-382 64 0
-381 64 0
-382 66 0
-381 66 0
-382 12 0
-381 -12 0
382 -64 -66 -12 0
381 -64 -66 12 0
-384 64 0
-383 64 0
-384 67 0
-383 67 0
-384 12 0
-383 -12 0
384 -64 -67 -12 0
383 -64 -67 12 0
-386 65 0
-385 65 0
-386 70 0
-385 70 0
-386 13 0
-385 -13 0
386 -65 -70 -13 0
385 -65 -70 13 0
-388 65 0
-387 65 0
-388 71 0
-387 71 0
-388 13 0
-387 -13 0
388 -65 -71 -13 0
387 -65 -71 13 0
-390 65 0
-389 65 0
-390 72 0
-389 72 0
-390 13 0
-389 -13 0
390 -65 -72 -13 0
389 -65 -72 13 0
-392 66 0
-391 66 0
-392 69 0
-391 69 0
-392 13 0
-391 -13 0
392 -66 -69 -13 0
391 -66 -69 13 0
-394 66 0
-393 66 0
-394 71 0
-393 71 0
-394 13 0
-393 -13 0
394 -66 -71 -13 0
393 -66 -71 13 0
-396 66 0
-395 66 0
-396 72 0
-395 72 0
-396 13 0
-395 -13 0
396 -66 -72 -13 0
395 -66 -72 13 0
-398 67 0
-397 67 0
-398 69 0
-397 69 0
-398 13 0
-397 -13 0
398 -67 -69 -13 0
397 -67 -69 13 0
-400 67 0
-399 67 0
-400 70 0
-399 70 0
-400 13 0
-399 -13 0
400 -67 -70 -13 0
399 -67 -70 13 0
-402 67 0
-401 67 0
-402 72 0
-401 72 0
-402 13 0
-401 -13 0
402 -67 -72 -13 0
401 -67 -72 13 0
-404 68 0
-403 68 0
-404 69 0
-403 69 0
-404 13 0
-403 -13 0
404 -68 -69 -13 0
403 -68 -69 13 0
-406 68 0
-405 68 0
-406 70 0
-405 70 0
-406 13 0
-405 -13 0
406 -68 -70 -13 0
405 -68 -70 13 0
-408 68 0
-407 68 0
-408 71 0
-407 71 0
-408 13 0
-407 -13 0
408 -68 -71 -13 0
407 -68 -71 13 0
-410 69 0
-409 69 0
-410 74 0
-409 74 0
-410 14 0
-409 -14 0
410 -69 -74 -14 0
409 -69 -74 14 0
-412 69 0
-411 69 0
-412 75 0
-411 75 0
-412 14 0
-411 -14 0
412 -69 -75 -14 0
411 -69 -75 14 0
-414 69 0
-413 69 0
-414 76 0
-413 76 0
-414 14 0
-413 -14 0
414 -69 -76 -14 0
413 -69 -76 14 0
-416 70 0
-415 70 0
-416 73 0
-415 73 0
-416 14 0
-415 -14 0
416 -70 -73 -14 0
415 -70 -73 14 0
-418 70 0
-417 70 0
-418 75 0
-417 75 0
-418 14 0
-417 -14 0
418 -70 -75 -14 0
417 -70 -75 14 0
-420 70 0
-419 70 0
-420 76 0
-419 76 0
-420 14 0
-419 -14 0
420 -70 -76 -14 0
419 -70 -76 14 0
-422 71 0
-421 71 0
-422 73 0
-421 73 0
-422 14 0
-421 -14 0
422 -71 -73 -14 0
421 -71 -73 14 0
-424 71 0
-423 71 0
-424 74 0
-423 74 0
-424 14 0
-423 -14 0
424 -71 -74 -14 0
423 -71 -74 14 0
-426 71 0
-425 71 0
-426 76 0
-425 76 0
-426 14 0
-425 -14 0
426 -71 -76 -14 0
425 -71 -76 14 0
-428 72 0
-427 72 0
-428 73 0
-427 73 0
-428 14 0
-427 -14 0
428 -72 -73 -14 0
427 -72 -73 14 0
-430 72 0
-429 72 0
-430 74 0
-429 74 0
-430 14 0
-429 -14 0
430 -72 -74 -14 0
429 -72 -74 14 0
-432 72 0
-431 72 0
-432 75 0
-431 75 0
-432 14 0
-431 -14 0
432 -72 -75 -14 0
431 -72 -75 14 0
-434 73 0
-433 73 0
-434 78 0
-433 78 0
-434 15 0
-433 -15 0
434 -73 -78 -15 0
433 -73 -78 15 0
-436 73 0
-435 73 0
-436 79 0
-435 79 0
-436 15 0
-435 -15 0
436 -73 -79 -15 0
435 -73 -79 15 0
-438 73 0
-437 73 0
-438 80 0
-437 80 0
-438 15 0
-437 -15 0
438 -73 -80 -15 0
437 -73 -80 15 0
-440 74 0
-439 74 0
-440 77 0
-439 77 0
-440 15 0
-439 -15 0
440 -74 -77 -15 0
439 -74 -77 15 0
-442 74 0
-441 74 0
-442 79 0
-441 79 0
-442 15 0
-441 -15 0
442 -74 -79 -15 0
441 -74 -79 15 0
-444 74 0
-443 74 0
-444 80 0
-443 80 0
-444 15 0
-443 -15 0
444 -74 -80 -15 0
443 -74 -80 15 0
-446 75 0
-445 75 0
-446 77 0
-445 77 0
-446 15 0
-445 -15 0
446 -75 -77 -15 0
445 -75 -77 15 0
-448 75 0
-447 75 0
-448 78 0
-447 78 0
-448 15 0
-447 -15 0
448 -75 -78 -15 0
447 -75 -78 15 0
-450 75 0
-449 75 0
-450 80 0
-449 80 0
-450 15 0
-449 -15 0
450 -75 -80 -15 0
449 -75 -80 15 0
-452 76 0
-451 76 0
-452 77 0
-451 77 0
-452 15 0
-451 -15 0
452 -76 -77 -15 0
451 -76 -77 15 0
-454 76 0
-453 76 0
-454 78 0
-453 78 0
-454 15 0
-453 -15 0
454 -76 -78 -15 0
453 -76 -78 15 0
-456 76 0
-455 76 0
-456 79 0
-455 79 0
-456 15 0
-455 -15 0
456 -76 -79 -15 0
455 -76 -79 15 0
-458 77 0
-457 77 0
-458 82 0
-457 82 0
-458 16 0
-457 -16 0
458 -77 -82 -16 0
457 -77 -82 16 0
-460 77 0
-459 77 0
-460 83 0
-459 83 0
-460 16 0
-459 -16 0
460 -77 -83 -16 0
459 -77 -83 16 0
-462 77 0
-461 77 0
-462 84 0
-461 84 0
-462 16 0
-461 -16 0
462 -77 -84 -16 0
461 -77 -84 16 0
-464 78 0
-463 78 0
-464 81 0
-463 81 0
-464 16 0
-463 -16 0
464 -78 -81 -16 0
463 -78 -81 16 0
-466 78 0
-465 78 0
-466 83 0
-465 83 0
-466 16 0
-465 -16 0
466 -78 -83 -16 0
465 -78 -83 16 0
-468 78 0
-467 78 0
-468 84 0
-467 84 0
-468 16 0
-467 -16 0
468 -78 -84 -16 0
467 -78 -84 16 0
-470 79 0
-469 79 0
-470 81 0
-469 81 0
-470 16 0
-469 -16 0
470 -79 -81 -16 0
469 -79 -81 16 0
-472 79 0
-471 79 0
-472 82 0
-471 82 0
-472 16 0
-471 -16 0
472 -79 -82 -16 0
471 -79 -82 16 0
-474 79 0
-473 79 0
-474 84 0
-473 84 0
-474 16 0
-473 -16 0
474 -79 -84 -16 0
473 -79 -84 16 0
-476 80 0
-475 80 0
-476 81 0
-475 81 0
-476 16 0
-475 -16 0
476 -80 -81 -16 0
475 -80 -81 16 0
-478 80 0
-477 80 0
-478 82 0
-477 82 0
-478 16 0
-477 -16 0
478 -80 -82 -16 0
477 -80 -82 16 0
-480 80 0
-479 80 0
-480 83 0
-479 83 0
-480 16 0
-479 -16 0
480 -80 -83 -16 0
479 -80 -83 16 0
c x suite
-85 -86 98 104 122 128 146 152 170 176 194 200 218 224 242 248 266 272 290 296 314 320 338 344 362 368 386 392 410 416 434 440 458 464 0
-87 -88 100 110 124 134 148 158 172 182 196 206 220 230 244 254 268 278 292 302 316 326 340 350 364 374 388 398 412 422 436 446 460 470 0
-89 -90 102 116 126 140 150 164 174 188 198 212 222 236 246 260 270 284 294 308 318 332 342 356 366 380 390 404 414 428 438 452 462 476 0
-91 -92 106 112 130 136 154 160 178 184 202 208 226 232 250 256 274 280 298 304 322 328 346 352 370 376 394 400 418 424 442 448 466 472 0
-93 -94 108 118 132 142 156 166 180 190 204 214 228 238 252 262 276 286 300 310 324 334 348 358 372 382 396 406 420 430 444 454 468 478 0
-95 -96 114 120 138 144 162 168 186 192 210 216 234 240 258 264 282 288 306 312 330 336 354 360 378 384 402 408 426 432 450 456 474 480 0
-85 86 97 103 121 127 145 151 169 175 193 199 217 223 241 247 265 271 289 295 313 319 337 343 361 367 385 391 409 415 433 439 457 463 0
-87 88 99 109 123 133 147 157 171 181 195 205 219 229 243 253 267 277 291 301 315 325 339 349 363 373 387 397 411 421 435 445 459 469 0
-89 90 101 115 125 139 149 163 173 187 197 211 221 235 245 259 269 283 293 307 317 331 341 355 365 379 389 403 413 427 437 451 461 475 0
-91 92 105 111 129 135 153 159 177 183 201 207 225 231 249 255 273 279 297 303 321 327 345 351 369 375 393 399 417 423 441 447 465 471 0
-93 94 107 117 131 141 155 165 179 189 203 213 227 237 251 261 275 285 299 309 323 333 347 357 371 381 395 405 419 429 443 453 467 477 0
-95 96 113 119 137 143 161 167 185 191 209 215 233 239 257 263 281 287 305 311 329 335 353 359 377 383 401 407 425 431 449 455 473 479 0
c proper colo
-17 -21 0
-18 -22 0
-19 -23 0
-20 -24 0
-21 -25 0
-22 -26 0
-23 -27 0
-24 -28 0
-25 -29 0
-26 -30 0
-27 -31 0
-28 -32 0
-29 -33 0
-30 -34 0
-31 -35 0
-32 -36 0
-33 -37 0
-34 -38 0
-35 -39 0
-36 -40 0
-37 -41 0
-38 -42 0
-39 -43 0
-40 -44 0
-41 -45 0
-42 -46 0
-43 -47 0
-44 -48 0
-45 -49 0
-46 -50 0
-47 -51 0
-48 -52 0
-49 -53 0
-50 -54 0
-51 -55 0
-52 -56 0
-53 -57 0
-54 -58 0
-55 -59 0
-56 -60 0
-57 -61 0
-58 -62 0
-59 -63 0
-60 -64 0
-61 -65 0
-62 -66 0
-63 -67 0
-64 -68 0
-65 -69 0
-66 -70 0
-67 -71 0
-68 -72 0
-69 -73 0
-70 -74 0
-71 -75 0
-72 -76 0
-73 -77 0
-74 -78 0
-75 -79 0
-76 -80 0
-77 -81 0
-78 -82 0
-79 -83 0
-80 -84 0
85 481 482 0
87 483 484 0
89 485 486 0
91 487 488 0
93 489 490 0
95 491 492 0
-481 87 0
-481 91 0
-481 88 92 0
-481 -88 -92 0
481 -87 -91 88 -92 0
481 -87 -91 -88 92 0
-482 89 0
-482 93 0
-482 90 94 0
-482 -90 -94 0
482 -89 -93 90 -94 0
482 -89 -93 -90 94 0
-483 85 0
-483 91 0
-483 86 92 0
-483 -86 -92 0
483 -85 -91 86 -92 0
483 -85 -91 -86 92 0
-484 89 0
-484 95 0
-484 90 96 0
-484 -90 -96 0
484 -89 -95 90 -96 0
484 -89 -95 -90 96 0
-485 85 0
-485 93 0
-485 86 94 0
-485 -86 -94 0
485 -85 -93 86 -94 0
485 -85 -93 -86 94 0
-486 87 0
-486 95 0
-486 88 96 0
-486 -88 -96 0
486 -87 -95 88 -96 0
486 -87 -95 -88 96 0
-487 85 0
-487 87 0
-487 86 88 0
-487 -86 -88 0
487 -85 -87 86 -88 0
487 -85 -87 -86 88 0
-488 93 0
-488 95 0
-488 94 96 0
-488 -94 -96 0
488 -93 -95 94 -96 0
488 -93 -95 -94 96 0
-489 85 0
-489 89 0
-489 86 90 0
-489 -86 -90 0
489 -85 -89 86 -90 0
489 -85 -89 -86 90 0
-490 91 0
-490 95 0
-490 92 96 0
-490 -92 -96 0
490 -91 -95 92 -96 0
490 -91 -95 -92 96 0
-491 87 0
-491 89 0
-491 88 90 0
-491 -88 -90 0
491 -87 -89 88 -90 0
491 -87 -89 -88 90 0
-492 91 0
-492 93 0
-492 92 94 0
-492 -92 -94 0
492 -91 -93 92 -94 0
492 -91 -93 -92 94 0
